p cnf 150 2458
1 2 3 4 5 0
6 7 8 9 10 0
11 12 13 14 15 0
16 17 18 19 20 0
21 22 23 24 25 0
26 27 28 29 30 0
31 32 33 34 35 0
36 37 38 39 40 0
41 42 43 44 45 0
46 47 48 49 50 0
51 52 53 54 55 0
56 57 58 59 60 0
61 62 63 64 65 0
66 67 68 69 70 0
71 72 73 74 75 0
76 77 78 79 80 0
81 82 83 84 85 0
86 87 88 89 90 0
91 92 93 94 95 0
96 97 98 99 100 0
101 102 103 104 105 0
106 107 108 109 110 0
111 112 113 114 115 0
116 117 118 119 120 0
121 122 123 124 125 0
126 127 128 129 130 0
131 132 133 134 135 0
136 137 138 139 140 0
141 142 143 144 145 0
146 147 148 149 150 0
-1 -2 0
-1 -3 0
-1 -4 0
-1 -5 0
-2 -3 0
-2 -4 0
-2 -5 0
-3 -4 0
-3 -5 0
-4 -5 0
-6 -7 0
-6 -8 0
-6 -9 0
-6 -10 0
-7 -8 0
-7 -9 0
-7 -10 0
-8 -9 0
-8 -10 0
-9 -10 0
-11 -12 0
-11 -13 0
-11 -14 0
-11 -15 0
-12 -13 0
-12 -14 0
-12 -15 0
-13 -14 0
-13 -15 0
-14 -15 0
-16 -17 0
-16 -18 0
-16 -19 0
-16 -20 0
-17 -18 0
-17 -19 0
-17 -20 0
-18 -19 0
-18 -20 0
-19 -20 0
-21 -22 0
-21 -23 0
-21 -24 0
-21 -25 0
-22 -23 0
-22 -24 0
-22 -25 0
-23 -24 0
-23 -25 0
-24 -25 0
-26 -27 0
-26 -28 0
-26 -29 0
-26 -30 0
-27 -28 0
-27 -29 0
-27 -30 0
-28 -29 0
-28 -30 0
-29 -30 0
-31 -32 0
-31 -33 0
-31 -34 0
-31 -35 0
-32 -33 0
-32 -34 0
-32 -35 0
-33 -34 0
-33 -35 0
-34 -35 0
-36 -37 0
-36 -38 0
-36 -39 0
-36 -40 0
-37 -38 0
-37 -39 0
-37 -40 0
-38 -39 0
-38 -40 0
-39 -40 0
-41 -42 0
-41 -43 0
-41 -44 0
-41 -45 0
-42 -43 0
-42 -44 0
-42 -45 0
-43 -44 0
-43 -45 0
-44 -45 0
-46 -47 0
-46 -48 0
-46 -49 0
-46 -50 0
-47 -48 0
-47 -49 0
-47 -50 0
-48 -49 0
-48 -50 0
-49 -50 0
-51 -52 0
-51 -53 0
-51 -54 0
-51 -55 0
-52 -53 0
-52 -54 0
-52 -55 0
-53 -54 0
-53 -55 0
-54 -55 0
-56 -57 0
-56 -58 0
-56 -59 0
-56 -60 0
-57 -58 0
-57 -59 0
-57 -60 0
-58 -59 0
-58 -60 0
-59 -60 0
-61 -62 0
-61 -63 0
-61 -64 0
-61 -65 0
-62 -63 0
-62 -64 0
-62 -65 0
-63 -64 0
-63 -65 0
-64 -65 0
-66 -67 0
-66 -68 0
-66 -69 0
-66 -70 0
-67 -68 0
-67 -69 0
-67 -70 0
-68 -69 0
-68 -70 0
-69 -70 0
-71 -72 0
-71 -73 0
-71 -74 0
-71 -75 0
-72 -73 0
-72 -74 0
-72 -75 0
-73 -74 0
-73 -75 0
-74 -75 0
-76 -77 0
-76 -78 0
-76 -79 0
-76 -80 0
-77 -78 0
-77 -79 0
-77 -80 0
-78 -79 0
-78 -80 0
-79 -80 0
-81 -82 0
-81 -83 0
-81 -84 0
-81 -85 0
-82 -83 0
-82 -84 0
-82 -85 0
-83 -84 0
-83 -85 0
-84 -85 0
-86 -87 0
-86 -88 0
-86 -89 0
-86 -90 0
-87 -88 0
-87 -89 0
-87 -90 0
-88 -89 0
-88 -90 0
-89 -90 0
-91 -92 0
-91 -93 0
-91 -94 0
-91 -95 0
-92 -93 0
-92 -94 0
-92 -95 0
-93 -94 0
-93 -95 0
-94 -95 0
-96 -97 0
-96 -98 0
-96 -99 0
-96 -100 0
-97 -98 0
-97 -99 0
-97 -100 0
-98 -99 0
-98 -100 0
-99 -100 0
-101 -102 0
-101 -103 0
-101 -104 0
-101 -105 0
-102 -103 0
-102 -104 0
-102 -105 0
-103 -104 0
-103 -105 0
-104 -105 0
-106 -107 0
-106 -108 0
-106 -109 0
-106 -110 0
-107 -108 0
-107 -109 0
-107 -110 0
-108 -109 0
-108 -110 0
-109 -110 0
-111 -112 0
-111 -113 0
-111 -114 0
-111 -115 0
-112 -113 0
-112 -114 0
-112 -115 0
-113 -114 0
-113 -115 0
-114 -115 0
-116 -117 0
-116 -118 0
-116 -119 0
-116 -120 0
-117 -118 0
-117 -119 0
-117 -120 0
-118 -119 0
-118 -120 0
-119 -120 0
-121 -122 0
-121 -123 0
-121 -124 0
-121 -125 0
-122 -123 0
-122 -124 0
-122 -125 0
-123 -124 0
-123 -125 0
-124 -125 0
-126 -127 0
-126 -128 0
-126 -129 0
-126 -130 0
-127 -128 0
-127 -129 0
-127 -130 0
-128 -129 0
-128 -130 0
-129 -130 0
-131 -132 0
-131 -133 0
-131 -134 0
-131 -135 0
-132 -133 0
-132 -134 0
-132 -135 0
-133 -134 0
-133 -135 0
-134 -135 0
-136 -137 0
-136 -138 0
-136 -139 0
-136 -140 0
-137 -138 0
-137 -139 0
-137 -140 0
-138 -139 0
-138 -140 0
-139 -140 0
-141 -142 0
-141 -143 0
-141 -144 0
-141 -145 0
-142 -143 0
-142 -144 0
-142 -145 0
-143 -144 0
-143 -145 0
-144 -145 0
-146 -147 0
-146 -148 0
-146 -149 0
-146 -150 0
-147 -148 0
-147 -149 0
-147 -150 0
-148 -149 0
-148 -150 0
-149 -150 0
-1 -15 0
-4 -13 0
-2 -15 0
-5 -11 0
-3 -12 0
-3 -14 0
-1 -14 0
-4 -20 0
-5 -20 0
-1 -16 0
-5 -17 0
-5 -16 0
-5 -18 0
-4 -19 0
-1 -23 0
-5 -22 0
-5 -21 0
-4 -24 0
-4 -25 0
-4 -23 0
-3 -23 0
-3 -27 0
-2 -26 0
-3 -29 0
-1 -28 0
-2 -29 0
-3 -30 0
-2 -28 0
-1 -39 0
-3 -36 0
-1 -36 0
-4 -39 0
-4 -37 0
-2 -40 0
-1 -37 0
-5 -42 0
-1 -42 0
-5 -44 0
-3 -44 0
-4 -44 0
-3 -43 0
-3 -42 0
-4 -73 0
-2 -71 0
-5 -73 0
-4 -72 0
-1 -72 0
-1 -71 0
-5 -72 0
-5 -83 0
-2 -82 0
-3 -84 0
-1 -85 0
-4 -81 0
-5 -81 0
-3 -82 0
-5 -93 0
-5 -95 0
-3 -95 0
-4 -95 0
-1 -94 0
-2 -94 0
-2 -92 0
-4 -102 0
-3 -104 0
-2 -104 0
-5 -101 0
-2 -102 0
-3 -103 0
-4 -103 0
-4 -108 0
-4 -109 0
-3 -109 0
-1 -106 0
-3 -110 0
-3 -108 0
-5 -109 0
-5 -112 0
-1 -112 0
-4 -115 0
-2 -112 0
-5 -111 0
-5 -113 0
-2 -111 0
-4 -121 0
-4 -123 0
-5 -122 0
-2 -125 0
-2 -124 0
-5 -125 0
-4 -125 0
-5 -128 0
-1 -130 0
-2 -127 0
-5 -127 0
-5 -130 0
-3 -128 0
-2 -126 0
-5 -132 0
-5 -135 0
-1 -132 0
-3 -134 0
-1 -135 0
-1 -133 0
-3 -132 0
-3 -138 0
-1 -137 0
-4 -139 0
-5 -137 0
-4 -138 0
-5 -140 0
-5 -138 0
-3 -144 0
-2 -142 0
-5 -145 0
-1 -142 0
-5 -144 0
-4 -145 0
-3 -141 0
-3 -148 0
-2 -149 0
-4 -149 0
-5 -147 0
-5 -146 0
-4 -150 0
-3 -146 0
-7 -17 0
-9 -18 0
-9 -19 0
-7 -18 0
-8 -20 0
-7 -16 0
-9 -17 0
-7 -28 0
-10 -28 0
-6 -27 0
-9 -26 0
-7 -27 0
-10 -29 0
-9 -28 0
-8 -32 0
-9 -32 0
-7 -33 0
-6 -34 0
-9 -35 0
-10 -31 0
-6 -35 0
-9 -39 0
-6 -36 0
-8 -38 0
-7 -38 0
-7 -39 0
-10 -40 0
-9 -36 0
-10 -43 0
-7 -42 0
-10 -42 0
-8 -45 0
-9 -44 0
-7 -45 0
-9 -43 0
-6 -50 0
-8 -47 0
-9 -46 0
-7 -50 0
-8 -48 0
-10 -46 0
-7 -48 0
-6 -59 0
-6 -56 0
-6 -57 0
-7 -60 0
-8 -56 0
-10 -57 0
-9 -59 0
-8 -69 0
-8 -67 0
-8 -66 0
-10 -70 0
-10 -66 0
-7 -69 0
-7 -66 0
-9 -71 0
-7 -75 0
-6 -73 0
-10 -73 0
-10 -71 0
-8 -72 0
-6 -71 0
-9 -79 0
-6 -80 0
-7 -78 0
-8 -79 0
-10 -80 0
-9 -76 0
-9 -80 0
-6 -84 0
-9 -81 0
-8 -85 0
-9 -85 0
-8 -81 0
-8 -83 0
-7 -83 0
-6 -99 0
-6 -97 0
-7 -98 0
-7 -96 0
-8 -97 0
-6 -98 0
-8 -99 0
-7 -101 0
-6 -104 0
-10 -104 0
-6 -103 0
-9 -103 0
-8 -102 0
-10 -105 0
-9 -110 0
-7 -108 0
-7 -110 0
-6 -108 0
-7 -109 0
-8 -110 0
-10 -108 0
-10 -113 0
-6 -114 0
-9 -114 0
-6 -113 0
-9 -111 0
-7 -113 0
-6 -111 0
-7 -124 0
-6 -124 0
-6 -122 0
-8 -122 0
-8 -121 0
-9 -125 0
-9 -124 0
-9 -133 0
-9 -135 0
-8 -132 0
-9 -134 0
-8 -131 0
-7 -131 0
-6 -133 0
-7 -139 0
-10 -138 0
-6 -140 0
-10 -139 0
-9 -140 0
-6 -136 0
-6 -138 0
-6 -141 0
-10 -145 0
-9 -144 0
-7 -143 0
-6 -142 0
-8 -143 0
-6 -144 0
-12 -17 0
-11 -16 0
-15 -18 0
-14 -20 0
-15 -16 0
-14 -16 0
-11 -20 0
-11 -35 0
-15 -35 0
-14 -31 0
-11 -32 0
-12 -35 0
-13 -31 0
-15 -33 0
-15 -45 0
-12 -44 0
-14 -43 0
-12 -43 0
-13 -41 0
-12 -42 0
-15 -41 0
-15 -50 0
-14 -50 0
-13 -50 0
-11 -47 0
-11 -48 0
-14 -46 0
-11 -46 0
-12 -51 0
-15 -55 0
-12 -53 0
-13 -52 0
-14 -55 0
-11 -54 0
-12 -54 0
-12 -57 0
-14 -59 0
-12 -56 0
-13 -57 0
-12 -60 0
-13 -59 0
-15 -56 0
-15 -64 0
-12 -62 0
-14 -63 0
-11 -63 0
-14 -61 0
-11 -62 0
-11 -61 0
-14 -69 0
-12 -67 0
-12 -66 0
-13 -66 0
-11 -66 0
-15 -68 0
-11 -69 0
-14 -79 0
-13 -77 0
-15 -76 0
-15 -77 0
-13 -76 0
-11 -78 0
-11 -80 0
-13 -86 0
-14 -88 0
-14 -90 0
-12 -88 0
-11 -88 0
-12 -90 0
-11 -90 0
-15 -92 0
-13 -94 0
-13 -93 0
-11 -95 0
-13 -92 0
-15 -93 0
-11 -93 0
-11 -97 0
-12 -100 0
-15 -99 0
-12 -96 0
-13 -97 0
-11 -100 0
-12 -98 0
-11 -112 0
-14 -115 0
-15 -112 0
-14 -113 0
-11 -111 0
-12 -111 0
-12 -115 0
-15 -117 0
-13 -119 0
-12 -120 0
-15 -118 0
-15 -116 0
-11 -116 0
-11 -120 0
-12 -122 0
-15 -121 0
-14 -122 0
-14 -125 0
-12 -124 0
-15 -122 0
-11 -125 0
-14 -133 0
-14 -134 0
-15 -135 0
-12 -135 0
-13 -134 0
-13 -133 0
-11 -133 0
-13 -139 0
-13 -140 0
-14 -137 0
-15 -140 0
-12 -136 0
-14 -138 0
-11 -140 0
-14 -141 0
-11 -144 0
-14 -144 0
-15 -144 0
-11 -145 0
-12 -144 0
-15 -141 0
-14 -148 0
-13 -147 0
-12 -147 0
-15 -150 0
-13 -150 0
-15 -146 0
-13 -146 0
-16 -23 0
-16 -24 0
-19 -25 0
-19 -21 0
-20 -21 0
-20 -24 0
-20 -23 0
-19 -27 0
-20 -30 0
-16 -26 0
-20 -26 0
-16 -27 0
-19 -26 0
-18 -29 0
-18 -40 0
-18 -38 0
-20 -37 0
-17 -40 0
-19 -36 0
-17 -38 0
-19 -38 0
-20 -42 0
-19 -41 0
-17 -41 0
-20 -44 0
-16 -42 0
-16 -45 0
-18 -41 0
-17 -47 0
-17 -48 0
-16 -46 0
-18 -46 0
-19 -48 0
-17 -46 0
-18 -47 0
-19 -54 0
-17 -54 0
-19 -51 0
-18 -52 0
-17 -55 0
-20 -51 0
-17 -51 0
-19 -60 0
-17 -57 0
-16 -56 0
-17 -60 0
-19 -57 0
-17 -58 0
-18 -57 0
-17 -61 0
-17 -62 0
-18 -63 0
-17 -63 0
-16 -62 0
-20 -65 0
-16 -65 0
-16 -66 0
-16 -68 0
-16 -69 0
-20 -70 0
-18 -68 0
-18 -67 0
-19 -66 0
-17 -74 0
-16 -74 0
-17 -71 0
-18 -73 0
-19 -75 0
-17 -72 0
-16 -72 0
-18 -76 0
-18 -78 0
-16 -78 0
-16 -80 0
-17 -76 0
-20 -78 0
-16 -76 0
-16 -84 0
-18 -82 0
-16 -81 0
-16 -82 0
-17 -85 0
-18 -83 0
-17 -82 0
-17 -89 0
-18 -89 0
-17 -86 0
-19 -89 0
-20 -89 0
-20 -86 0
-17 -88 0
-16 -92 0
-17 -92 0
-19 -92 0
-20 -91 0
-18 -91 0
-19 -95 0
-18 -94 0
-20 -100 0
-18 -96 0
-20 -98 0
-16 -96 0
-18 -97 0
-16 -98 0
-17 -96 0
-19 -101 0
-20 -102 0
-18 -103 0
-16 -103 0
-17 -101 0
-20 -101 0
-20 -103 0
-20 -108 0
-19 -107 0
-17 -107 0
-16 -108 0
-18 -110 0
-19 -106 0
-20 -109 0
-18 -111 0
-18 -114 0
-18 -115 0
-19 -113 0
-20 -113 0
-16 -114 0
-18 -113 0
-17 -120 0
-20 -119 0
-19 -116 0
-17 -119 0
-17 -116 0
-16 -120 0
-19 -118 0
-17 -125 0
-18 -125 0
-19 -122 0
-19 -125 0
-19 -124 0
-17 -123 0
-17 -122 0
-18 -146 0
-18 -150 0
-18 -147 0
-16 -150 0
-19 -147 0
-17 -146 0
-17 -147 0
-24 -28 0
-24 -26 0
-23 -26 0
-23 -27 0
-25 -30 0
-24 -29 0
-24 -27 0
-25 -36 0
-24 -40 0
-22 -40 0
-21 -40 0
-25 -39 0
-25 -38 0
-23 -37 0
-23 -46 0
-25 -49 0
-24 -49 0
-23 -50 0
-23 -49 0
-22 -48 0
-21 -49 0
-21 -51 0
-24 -55 0
-22 -51 0
-25 -55 0
-22 -53 0
-23 -51 0
-21 -52 0
-21 -60 0
-22 -58 0
-24 -60 0
-22 -60 0
-25 -60 0
-21 -57 0
-24 -57 0
-24 -64 0
-21 -61 0
-21 -62 0
-24 -63 0
-23 -61 0
-21 -65 0
-22 -63 0
-23 -68 0
-23 -66 0
-24 -67 0
-23 -70 0
-23 -69 0
-24 -66 0
-22 -67 0
-24 -83 0
-23 -81 0
-23 -85 0
-24 -85 0
-25 -83 0
-25 -82 0
-22 -81 0
-24 -91 0
-21 -94 0
-24 -92 0
-25 -94 0
-21 -92 0
-24 -94 0
-22 -92 0
-23 -98 0
-21 -97 0
-25 -99 0
-22 -99 0
-25 -97 0
-21 -96 0
-24 -99 0
-22 -102 0
-24 -102 0
-24 -103 0
-23 -103 0
-25 -104 0
-22 -101 0
-21 -105 0
-23 -107 0
-24 -108 0
-25 -109 0
-21 -106 0
-24 -107 0
-21 -108 0
-21 -110 0
-25 -120 0
-24 -120 0
-25 -117 0
-25 -118 0
-22 -120 0
-22 -118 0
-23 -117 0
-25 -123 0
-22 -122 0
-21 -123 0
-24 -124 0
-24 -122 0
-23 -125 0
-23 -124 0
-25 -130 0
-21 -128 0
-25 -128 0
-23 -129 0
-21 -130 0
-21 -126 0
-23 -130 0
-23 -135 0
-24 -135 0
-21 -134 0
-21 -131 0
-24 -134 0
-23 -134 0
-22 -135 0
-25 -140 0
-23 -136 0
-23 -138 0
-24 -136 0
-25 -138 0
-25 -139 0
-21 -140 0
-28 -39 0
-28 -40 0
-29 -39 0
-28 -36 0
-30 -38 0
-27 -37 0
-29 -40 0
-27 -50 0
-26 -47 0
-30 -50 0
-30 -48 0
-26 -48 0
-29 -49 0
-28 -50 0
-26 -51 0
-29 -52 0
-30 -52 0
-29 -54 0
-29 -55 0
-27 -55 0
-30 -51 0
-28 -58 0
-30 -59 0
-27 -60 0
-29 -58 0
-26 -60 0
-30 -58 0
-28 -57 0
-29 -67 0
-26 -68 0
-30 -69 0
-29 -66 0
-26 -66 0
-29 -69 0
-28 -66 0
-30 -73 0
-30 -75 0
-27 -74 0
-27 -73 0
-27 -71 0
-29 -73 0
-28 -72 0
-28 -80 0
-30 -80 0
-26 -77 0
-30 -76 0
-29 -78 0
-26 -78 0
-29 -79 0
-30 -82 0
-28 -82 0
-27 -83 0
-30 -81 0
-27 -81 0
-26 -83 0
-27 -85 0
-26 -87 0
-27 -88 0
-28 -86 0
-29 -86 0
-28 -88 0
-29 -88 0
-28 -89 0
-30 -98 0
-27 -96 0
-29 -96 0
-27 -100 0
-28 -98 0
-28 -97 0
-26 -96 0
-30 -102 0
-26 -103 0
-29 -104 0
-28 -102 0
-29 -103 0
-27 -103 0
-28 -105 0
-26 -107 0
-27 -108 0
-30 -109 0
-28 -109 0
-29 -108 0
-26 -110 0
-27 -110 0
-27 -114 0
-30 -112 0
-27 -111 0
-30 -113 0
-29 -113 0
-26 -111 0
-28 -112 0
-29 -117 0
-27 -116 0
-30 -118 0
-27 -119 0
-29 -118 0
-29 -119 0
-28 -118 0
-29 -123 0
-30 -124 0
-27 -122 0
-27 -125 0
-30 -122 0
-26 -125 0
-26 -122 0
-26 -128 0
-29 -127 0
-30 -129 0
-27 -129 0
-28 -129 0
-26 -130 0
-29 -130 0
-30 -133 0
-28 -131 0
-26 -132 0
-30 -132 0
-27 -131 0
-27 -134 0
-29 -131 0
-29 -144 0
-27 -145 0
-27 -141 0
-28 -143 0
-26 -141 0
-28 -145 0
-27 -142 0
-28 -150 0
-28 -146 0
-29 -148 0
-29 -150 0
-30 -146 0
-29 -149 0
-27 -149 0
-34 -39 0
-33 -36 0
-32 -36 0
-33 -40 0
-35 -39 0
-34 -40 0
-33 -39 0
-35 -45 0
-32 -45 0
-33 -44 0
-31 -44 0
-34 -42 0
-35 -43 0
-34 -41 0
-34 -60 0
-35 -57 0
-32 -56 0
-34 -57 0
-32 -57 0
-34 -59 0
-33 -57 0
-35 -62 0
-34 -62 0
-31 -63 0
-34 -61 0
-32 -63 0
-33 -61 0
-35 -65 0
-34 -85 0
-34 -81 0
-35 -85 0
-32 -84 0
-34 -84 0
-35 -83 0
-31 -81 0
-32 -89 0
-35 -87 0
-35 -86 0
-31 -86 0
-31 -89 0
-35 -90 0
-34 -90 0
-33 -91 0
-32 -94 0
-35 -95 0
-34 -95 0
-35 -92 0
-35 -94 0
-34 -91 0
-32 -96 0
-32 -100 0
-31 -96 0
-35 -97 0
-34 -100 0
-32 -98 0
-35 -98 0
-31 -102 0
-32 -104 0
-34 -103 0
-32 -101 0
-31 -104 0
-35 -101 0
-35 -104 0
-33 -111 0
-32 -112 0
-35 -112 0
-32 -115 0
-34 -115 0
-31 -112 0
-32 -113 0
-34 -124 0
-34 -121 0
-35 -124 0
-34 -123 0
-33 -125 0
-34 -122 0
-34 -125 0
-33 -127 0
-34 -126 0
-31 -127 0
-32 -129 0
-35 -126 0
-33 -129 0
-31 -128 0
-31 -140 0
-32 -138 0
-35 -137 0
-34 -138 0
-31 -136 0
-31 -138 0
-32 -139 0
-32 -144 0
-32 -143 0
-34 -144 0
-34 -145 0
-31 -145 0
-33 -142 0
-33 -144 0
-36 -43 0
-36 -44 0
-40 -42 0
-36 -45 0
-39 -41 0
-40 -45 0
-38 -43 0
-39 -50 0
-40 -46 0
-40 -47 0
-36 -46 0
-36 -47 0
-36 -48 0
-39 -47 0
-36 -53 0
-40 -51 0
-39 -51 0
-39 -55 0
-40 -55 0
-40 -52 0
-39 -54 0
-36 -67 0
-38 -69 0
-40 -66 0
-37 -66 0
-37 -68 0
-36 -70 0
-37 -69 0
-38 -72 0
-36 -75 0
-39 -75 0
-39 -72 0
-40 -75 0
-40 -71 0
-39 -74 0
-37 -80 0
-38 -77 0
-39 -79 0
-36 -76 0
-38 -78 0
-36 -79 0
-36 -78 0
-38 -90 0
-38 -89 0
-36 -87 0
-36 -90 0
-40 -86 0
-37 -89 0
-37 -88 0
-36 -93 0
-36 -95 0
-36 -94 0
-37 -93 0
-36 -91 0
-40 -91 0
-38 -93 0
-37 -97 0
-40 -96 0
-36 -97 0
-38 -99 0
-37 -96 0
-39 -100 0
-37 -98 0
-37 -104 0
-40 -101 0
-39 -103 0
-36 -103 0
-40 -105 0
-36 -105 0
-36 -102 0
-40 -111 0
-36 -113 0
-38 -115 0
-36 -112 0
-37 -114 0
-40 -112 0
-39 -115 0
-39 -116 0
-37 -117 0
-38 -116 0
-40 -117 0
-38 -117 0
-39 -119 0
-37 -120 0
-38 -125 0
-37 -122 0
-36 -121 0
-39 -124 0
-39 -125 0
-37 -121 0
-37 -123 0
-37 -127 0
-37 -128 0
-38 -129 0
-37 -126 0
-37 -130 0
-38 -130 0
-38 -126 0
-36 -132 0
-38 -132 0
-38 -134 0
-36 -135 0
-39 -133 0
-39 -135 0
-37 -131 0
-38 -145 0
-40 -142 0
-39 -142 0
-36 -143 0
-36 -144 0
-36 -145 0
-37 -143 0
-40 -147 0
-39 -146 0
-38 -148 0
-36 -148 0
-37 -147 0
-40 -150 0
-36 -147 0
-44 -48 0
-43 -47 0
-42 -46 0
-43 -49 0
-45 -46 0
-41 -46 0
-43 -48 0
-45 -51 0
-43 -55 0
-41 -53 0
-42 -52 0
-43 -52 0
-41 -54 0
-41 -51 0
-43 -59 0
-43 -57 0
-44 -60 0
-42 -57 0
-43 -58 0
-42 -56 0
-41 -58 0
-45 -63 0
-44 -63 0
-43 -61 0
-43 -65 0
-45 -62 0
-41 -61 0
-42 -61 0
-44 -71 0
-44 -74 0
-43 -72 0
-44 -75 0
-42 -74 0
-43 -71 0
-41 -73 0
-41 -77 0
-45 -79 0
-41 -80 0
-41 -78 0
-41 -79 0
-44 -78 0
-45 -80 0
-41 -84 0
-44 -81 0
-42 -84 0
-41 -85 0
-42 -81 0
-45 -82 0
-42 -83 0
-45 -89 0
-43 -86 0
-41 -89 0
-45 -87 0
-41 -87 0
-45 -90 0
-43 -89 0
-44 -93 0
-41 -93 0
-42 -95 0
-44 -94 0
-44 -91 0
-45 -91 0
-45 -93 0
-43 -102 0
-41 -102 0
-45 -104 0
-44 -103 0
-44 -101 0
-43 -104 0
-45 -102 0
-45 -110 0
-41 -108 0
-42 -109 0
-43 -109 0
-41 -109 0
-44 -107 0
-42 -108 0
-44 -112 0
-43 -115 0
-45 -114 0
-41 -113 0
-42 -112 0
-43 -114 0
-44 -111 0
-43 -118 0
-42 -116 0
-43 -117 0
-45 -118 0
-43 -120 0
-42 -120 0
-42 -118 0
-45 -121 0
-42 -125 0
-43 -124 0
-44 -122 0
-41 -122 0
-44 -124 0
-41 -124 0
-42 -128 0
-43 -130 0
-41 -129 0
-41 -128 0
-45 -126 0
-42 -126 0
-41 -130 0
-45 -132 0
-42 -132 0
-44 -135 0
-45 -134 0
-44 -133 0
-44 -132 0
-41 -131 0
-45 -140 0
-42 -137 0
-45 -138 0
-44 -136 0
-44 -140 0
-41 -139 0
-43 -138 0
-42 -142 0
-43 -141 0
-44 -145 0
-43 -142 0
-44 -142 0
-43 -144 0
-45 -143 0
-44 -148 0
-45 -147 0
-44 -149 0
-45 -150 0
-41 -148 0
-42 -149 0
-43 -148 0
-50 -54 0
-48 -51 0
-50 -52 0
-46 -51 0
-46 -55 0
-49 -53 0
-49 -51 0
-46 -58 0
-47 -59 0
-50 -56 0
-50 -60 0
-47 -56 0
-47 -60 0
-47 -57 0
-47 -64 0
-46 -65 0
-50 -65 0
-46 -63 0
-49 -62 0
-46 -62 0
-50 -64 0
-48 -67 0
-48 -70 0
-50 -68 0
-49 -69 0
-46 -67 0
-48 -68 0
-49 -66 0
-49 -80 0
-50 -80 0
-49 -78 0
-48 -80 0
-48 -78 0
-47 -79 0
-50 -77 0
-46 -82 0
-49 -84 0
-49 -82 0
-46 -84 0
-46 -85 0
-50 -82 0
-50 -81 0
-49 -90 0
-46 -89 0
-47 -90 0
-47 -87 0
-48 -89 0
-48 -86 0
-50 -87 0
-48 -93 0
-49 -92 0
-50 -94 0
-48 -95 0
-46 -95 0
-50 -93 0
-49 -95 0
-49 -100 0
-47 -97 0
-47 -100 0
-46 -100 0
-48 -96 0
-46 -96 0
-46 -98 0
-50 -103 0
-48 -103 0
-47 -103 0
-49 -104 0
-46 -103 0
-47 -104 0
-46 -101 0
-50 -106 0
-47 -107 0
-48 -108 0
-48 -106 0
-47 -106 0
-46 -110 0
-46 -106 0
-49 -115 0
-50 -113 0
-49 -113 0
-50 -111 0
-47 -113 0
-48 -114 0
-47 -112 0
-48 -120 0
-47 -116 0
-49 -118 0
-48 -118 0
-48 -117 0
-49 -116 0
-46 -119 0
-47 -123 0
-49 -123 0
-50 -121 0
-49 -122 0
-50 -125 0
-46 -125 0
-48 -125 0
-49 -138 0
-48 -136 0
-48 -140 0
-48 -139 0
-47 -138 0
-46 -140 0
-48 -137 0
-47 -144 0
-47 -145 0
-49 -141 0
-49 -142 0
-50 -144 0
-47 -143 0
-50 -143 0
-48 -146 0
-47 -147 0
-47 -148 0
-46 -147 0
-46 -149 0
-47 -149 0
-48 -150 0
-53 -59 0
-54 -59 0
-51 -60 0
-52 -60 0
-51 -58 0
-52 -57 0
-54 -60 0
-53 -61 0
-55 -61 0
-54 -61 0
-52 -65 0
-51 -64 0
-51 -65 0
-55 -62 0
-54 -73 0
-51 -74 0
-54 -72 0
-54 -75 0
-51 -72 0
-54 -71 0
-53 -73 0
-53 -78 0
-53 -77 0
-54 -78 0
-52 -77 0
-51 -76 0
-53 -79 0
-54 -77 0
-55 -88 0
-51 -86 0
-52 -86 0
-54 -90 0
-52 -90 0
-53 -86 0
-53 -88 0
-51 -94 0
-51 -93 0
-52 -95 0
-52 -94 0
-51 -95 0
-55 -92 0
-55 -94 0
-55 -101 0
-51 -101 0
-54 -104 0
-52 -103 0
-54 -103 0
-51 -103 0
-53 -104 0
-54 -113 0
-54 -112 0
-55 -113 0
-55 -111 0
-55 -115 0
-51 -114 0
-54 -114 0
-52 -119 0
-54 -118 0
-54 -116 0
-53 -117 0
-51 -119 0
-51 -116 0
-54 -117 0
-53 -121 0
-52 -125 0
-53 -124 0
-52 -123 0
-55 -121 0
-53 -125 0
-55 -122 0
-54 -126 0
-53 -129 0
-52 -126 0
-53 -127 0
-51 -129 0
-51 -130 0
-54 -127 0
-55 -133 0
-53 -131 0
-51 -135 0
-54 -133 0
-55 -134 0
-51 -133 0
-53 -133 0
-51 -138 0
-53 -137 0
-54 -138 0
-53 -138 0
-54 -136 0
-52 -138 0
-51 -140 0
-53 -142 0
-54 -142 0
-52 -143 0
-53 -144 0
-51 -145 0
-54 -143 0
-55 -142 0
-56 -67 0
-60 -67 0
-56 -69 0
-58 -66 0
-58 -67 0
-60 -70 0
-57 -66 0
-59 -74 0
-57 -71 0
-56 -72 0
-57 -75 0
-60 -71 0
-60 -75 0
-60 -73 0
-58 -83 0
-56 -83 0
-56 -84 0
-57 -81 0
-60 -81 0
-60 -84 0
-60 -82 0
-57 -87 0
-56 -86 0
-60 -89 0
-59 -89 0
-57 -86 0
-59 -90 0
-56 -88 0
-60 -92 0
-60 -94 0
-58 -93 0
-58 -95 0
-60 -95 0
-59 -92 0
-58 -94 0
-56 -98 0
-60 -100 0
-56 -100 0
-57 -99 0
-59 -97 0
-59 -100 0
-57 -96 0
-59 -110 0
-56 -109 0
-58 -107 0
-56 -110 0
-56 -107 0
-57 -108 0
-59 -109 0
-56 -111 0
-57 -112 0
-60 -115 0
-57 -115 0
-58 -111 0
-57 -114 0
-58 -115 0
-59 -118 0
-56 -116 0
-59 -117 0
-57 -119 0
-57 -117 0
-60 -118 0
-57 -120 0
-59 -130 0
-58 -127 0
-58 -130 0
-56 -127 0
-57 -128 0
-57 -129 0
-56 -130 0
-56 -132 0
-59 -131 0
-59 -133 0
-57 -133 0
-58 -135 0
-60 -131 0
-59 -135 0
-56 -145 0
-60 -143 0
-57 -143 0
-57 -144 0
-59 -141 0
-58 -143 0
-56 -141 0
-60 -150 0
-59 -148 0
-58 -148 0
-57 -150 0
-56 -149 0
-56 -150 0
-58 -150 0
-61 -75 0
-65 -75 0
-65 -74 0
-62 -75 0
-63 -74 0
-61 -72 0
-61 -71 0
-65 -78 0
-61 -76 0
-64 -78 0
-65 -77 0
-64 -79 0
-61 -80 0
-62 -77 0
-62 -81 0
-65 -82 0
-63 -83 0
-62 -83 0
-61 -85 0
-61 -81 0
-65 -85 0
-64 -97 0
-65 -99 0
-64 -96 0
-61 -99 0
-65 -100 0
-64 -98 0
-62 -96 0
-64 -105 0
-65 -104 0
-65 -102 0
-63 -102 0
-65 -105 0
-64 -104 0
-62 -102 0
-65 -128 0
-65 -127 0
-64 -129 0
-61 -129 0
-65 -126 0
-64 -130 0
-62 -130 0
-64 -137 0
-65 -139 0
-63 -136 0
-61 -138 0
-61 -140 0
-62 -138 0
-62 -137 0
-65 -147 0
-61 -146 0
-65 -148 0
-63 -146 0
-61 -149 0
-64 -146 0
-63 -150 0
-67 -82 0
-69 -82 0
-66 -81 0
-69 -83 0
-70 -84 0
-67 -83 0
-68 -84 0
-70 -86 0
-69 -86 0
-68 -89 0
-67 -89 0
-66 -88 0
-70 -90 0
-69 -89 0
-66 -95 0
-70 -94 0
-68 -91 0
-66 -93 0
-70 -91 0
-66 -92 0
-67 -92 0
-68 -109 0
-66 -109 0
-70 -108 0
-66 -107 0
-69 -106 0
-68 -108 0
-66 -106 0
-69 -111 0
-67 -113 0
-67 -111 0
-69 -112 0
-68 -112 0
-70 -114 0
-70 -113 0
-66 -116 0
-67 -117 0
-69 -119 0
-69 -118 0
-68 -119 0
-66 -119 0
-66 -118 0
-68 -136 0
-68 -138 0
-69 -138 0
-66 -139 0
-68 -137 0
-68 -139 0
-69 -139 0
-69 -142 0
-67 -141 0
-68 -143 0
-68 -145 0
-67 -145 0
-70 -142 0
-67 -143 0
-72 -82 0
-74 -84 0
-74 -85 0
-75 -85 0
-73 -84 0
-71 -83 0
-75 -81 0
-71 -92 0
-72 -92 0
-71 -95 0
-72 -93 0
-74 -93 0
-75 -95 0
-71 -94 0
-74 -105 0
-72 -101 0
-75 -101 0
-71 -105 0
-74 -101 0
-72 -105 0
-73 -104 0
-73 -109 0
-72 -106 0
-72 -107 0
-75 -106 0
-71 -110 0
-73 -110 0
-75 -109 0
-74 -113 0
-72 -112 0
-73 -114 0
-75 -111 0
-71 -114 0
-71 -113 0
-71 -112 0
-72 -123 0
-72 -125 0
-75 -121 0
-72 -124 0
-74 -123 0
-71 -122 0
-74 -122 0
-73 -135 0
-74 -134 0
-72 -135 0
-71 -132 0
-75 -135 0
-72 -132 0
-71 -134 0
-72 -139 0
-75 -140 0
-73 -139 0
-71 -140 0
-74 -140 0
-72 -140 0
-71 -139 0
-78 -82 0
-79 -81 0
-77 -83 0
-76 -84 0
-77 -84 0
-80 -84 0
-77 -81 0
-76 -92 0
-77 -95 0
-79 -93 0
-80 -91 0
-78 -93 0
-79 -94 0
-80 -95 0
-79 -105 0
-79 -104 0
-80 -105 0
-76 -103 0
-76 -101 0
-76 -102 0
-80 -104 0
-77 -108 0
-76 -108 0
-78 -107 0
-79 -108 0
-77 -107 0
-77 -106 0
-76 -107 0
-77 -112 0
-76 -113 0
-77 -111 0
-78 -112 0
-80 -112 0
-77 -114 0
-76 -114 0
-79 -118 0
-77 -116 0
-80 -116 0
-78 -118 0
-76 -120 0
-80 -120 0
-77 -118 0
-80 -132 0
-78 -135 0
-80 -133 0
-78 -132 0
-79 -131 0
-80 -131 0
-80 -135 0
-77 -137 0
-80 -140 0
-80 -139 0
-80 -138 0
-76 -136 0
-79 -137 0
-76 -138 0
-79 -145 0
-78 -144 0
-76 -145 0
-78 -141 0
-80 -145 0
-77 -143 0
-76 -144 0
-81 -99 0
-85 -100 0
-82 -100 0
-83 -98 0
-85 -97 0
-81 -97 0
-83 -97 0
-85 -102 0
-81 -102 0
-85 -101 0
-82 -103 0
-83 -102 0
-85 -103 0
-82 -104 0
-84 -124 0
-83 -123 0
-82 -124 0
-85 -121 0
-82 -121 0
-81 -122 0
-83 -122 0
-84 -131 0
-85 -135 0
-81 -131 0
-81 -134 0
-81 -132 0
-82 -134 0
-83 -135 0
-85 -137 0
-81 -136 0
-84 -139 0
-84 -136 0
-82 -139 0
-82 -136 0
-81 -140 0
-85 -150 0
-83 -146 0
-81 -147 0
-85 -147 0
-82 -148 0
-83 -149 0
-85 -149 0
-88 -94 0
-88 -93 0
-89 -94 0
-87 -93 0
-88 -92 0
-87 -94 0
-90 -91 0
-90 -104 0
-89 -101 0
-87 -102 0
-88 -102 0
-86 -102 0
-88 -105 0
-89 -104 0
-88 -106 0
-86 -106 0
-86 -107 0
-87 -107 0
-86 -109 0
-90 -110 0
-89 -106 0
-87 -111 0
-89 -115 0
-87 -112 0
-86 -114 0
-89 -111 0
-87 -115 0
-86 -111 0
-86 -125 0
-87 -123 0
-87 -122 0
-90 -123 0
-86 -123 0
-86 -121 0
-86 -122 0
-86 -128 0
-89 -126 0
-89 -129 0
-87 -129 0
-86 -127 0
-90 -129 0
-88 -127 0
-86 -135 0
-90 -134 0
-86 -134 0
-90 -135 0
-90 -133 0
-88 -133 0
-87 -135 0
-94 -99 0
-91 -100 0
-93 -97 0
-94 -97 0
-94 -98 0
-92 -98 0
-95 -98 0
-95 -103 0
-92 -105 0
-95 -101 0
-94 -105 0
-93 -103 0
-95 -104 0
-92 -101 0
-95 -109 0
-91 -109 0
-94 -106 0
-93 -107 0
-94 -108 0
-95 -107 0
-91 -107 0
-91 -114 0
-92 -115 0
-91 -111 0
-95 -113 0
-91 -115 0
-92 -114 0
-95 -112 0
-94 -116 0
-91 -120 0
-92 -118 0
-95 -117 0
-93 -116 0
-95 -118 0
-93 -118 0
-91 -121 0
-91 -125 0
-94 -121 0
-93 -123 0
-91 -122 0
-95 -121 0
-93 -124 0
-91 -138 0
-92 -136 0
-91 -139 0
-94 -137 0
-93 -139 0
-95 -139 0
-92 -137 0
-95 -142 0
-95 -143 0
-95 -141 0
-93 -142 0
-93 -144 0
-91 -145 0
-95 -144 0
-100 -110 0
-98 -109 0
-96 -110 0
-96 -106 0
-97 -109 0
-98 -107 0
-97 -108 0
-97 -111 0
-98 -115 0
-99 -112 0
-96 -112 0
-99 -115 0
-97 -115 0
-100 -115 0
-98 -117 0
-98 -118 0
-100 -120 0
-99 -116 0
-97 -118 0
-100 -118 0
-96 -117 0
-98 -122 0
-97 -123 0
-97 -122 0
-98 -123 0
-100 -125 0
-97 -124 0
-99 -125 0
-97 -129 0
-99 -126 0
-96 -126 0
-96 -128 0
-100 -129 0
-98 -127 0
-97 -127 0
-98 -141 0
-96 -143 0
-96 -142 0
-96 -141 0
-100 -144 0
-97 -145 0
-100 -141 0
-100 -148 0
-98 -149 0
-99 -146 0
-96 -148 0
-98 -147 0
-100 -147 0
-97 -148 0
-102 -109 0
-105 -106 0
-105 -107 0
-103 -106 0
-103 -108 0
-101 -108 0
-102 -107 0
-105 -114 0
-103 -113 0
-103 -114 0
-104 -112 0
-105 -113 0
-102 -114 0
-101 -115 0
-101 -119 0
-103 -119 0
-104 -120 0
-101 -120 0
-103 -116 0
-105 -120 0
-104 -116 0
-103 -123 0
-102 -122 0
-103 -124 0
-104 -123 0
-101 -123 0
-102 -123 0
-101 -122 0
-103 -133 0
-105 -135 0
-103 -132 0
-105 -134 0
-105 -131 0
-102 -131 0
-101 -133 0
-102 -144 0
-101 -142 0
-103 -143 0
-103 -145 0
-105 -142 0
-104 -143 0
-105 -144 0
-105 -146 0
-102 -146 0
-102 -149 0
-102 -148 0
-104 -150 0
-101 -146 0
-104 -149 0
-108 -114 0
-110 -113 0
-107 -114 0
-106 -112 0
-106 -111 0
-109 -111 0
-110 -112 0
-107 -120 0
-106 -119 0
-106 -116 0
-109 -120 0
-108 -119 0
-108 -116 0
-109 -117 0
-108 -125 0
-109 -124 0
-110 -125 0
-110 -124 0
-106 -123 0
-109 -121 0
-107 -124 0
-107 -126 0
-109 -128 0
-108 -129 0
-109 -130 0
-108 -130 0
-110 -126 0
-110 -130 0
-108 -135 0
-107 -134 0
-108 -133 0
-109 -134 0
-109 -131 0
-110 -131 0
-108 -134 0
-108 -143 0
-109 -145 0
-106 -141 0
-107 -143 0
-110 -144 0
-106 -144 0
-110 -142 0
-108 -150 0
-108 -149 0
-108 -148 0
-107 -147 0
-109 -150 0
-110 -150 0
-110 -148 0
-115 -118 0
-112 -116 0
-113 -119 0
-114 -119 0
-113 -120 0
-115 -120 0
-111 -120 0
-115 -128 0
-114 -126 0
-112 -127 0
-111 -130 0
-112 -128 0
-114 -130 0
-113 -126 0
-113 -131 0
-113 -134 0
-112 -131 0
-112 -134 0
-113 -133 0
-115 -135 0
-115 -133 0
-112 -136 0
-111 -138 0
-111 -136 0
-113 -140 0
-113 -136 0
-115 -136 0
-115 -138 0
-111 -149 0
-113 -148 0
-115 -147 0
-114 -148 0
-115 -150 0
-115 -148 0
-111 -148 0
-116 -129 0
-120 -126 0
-120 -130 0
-120 -127 0
-118 -130 0
-119 -128 0
-117 -130 0
-120 -135 0
-120 -131 0
-119 -131 0
-118 -131 0
-120 -134 0
-116 -134 0
-116 -135 0
-119 -140 0
-119 -139 0
-119 -136 0
-120 -138 0
-118 -137 0
-119 -138 0
-116 -137 0
-116 -142 0
-117 -141 0
-120 -144 0
-118 -144 0
-116 -143 0
-116 -144 0
-120 -145 0
-119 -147 0
-119 -148 0
-118 -150 0
-119 -146 0
-119 -150 0
-120 -147 0
-116 -149 0
-121 -127 0
-121 -126 0
-122 -126 0
-124 -126 0
-123 -127 0
-125 -126 0
-124 -128 0
-123 -132 0
-124 -132 0
-124 -135 0
-124 -133 0
-121 -132 0
-125 -133 0
-123 -135 0
-122 -143 0
-122 -144 0
-125 -141 0
-123 -144 0
-121 -145 0
-125 -144 0
-121 -141 0
-127 -131 0
-129 -132 0
-126 -134 0
-126 -132 0
-128 -135 0
-128 -132 0
-127 -133 0
-126 -137 0
-129 -137 0
-130 -138 0
-130 -139 0
-128 -140 0
-126 -140 0
-128 -137 0
-129 -141 0
-128 -142 0
-129 -145 0
-126 -145 0
-130 -142 0
-130 -143 0
-130 -144 0
-134 -138 0
-131 -136 0
-132 -136 0
-132 -140 0
-135 -137 0
-134 -137 0
-131 -140 0
-133 -144 0
-132 -143 0
-131 -142 0
-135 -143 0
-135 -144 0
-134 -144 0
-131 -143 0
-131 -148 0
-135 -150 0
-132 -148 0
-135 -146 0
-132 -147 0
-131 -146 0
-135 -149 0
-140 -142 0
-136 -142 0
-139 -145 0
-137 -142 0
-140 -144 0
-140 -143 0
-139 -143 0
-139 -149 0
-136 -149 0
-139 -148 0
-136 -148 0
-139 -146 0
-138 -150 0
-136 -147 0
-142 -149 0
-143 -147 0
-141 -149 0
-142 -147 0
-142 -146 0
-144 -146 0
-145 -149 0
